n = 10; 

m=8; 

																							
38	5	52	11	42	5	11	12	30	58
4	15	4	53	19	35	32	10	18	25
69	30	52	37	82	51	33	78	 5	82
62	82	50	57	46	78	91	12	19	46
17	37	14	14	11	76	3	49	46	11
29	92	47	41	37	81	40	58	42	37
82	49	28	45	90	58	44	82	71	90
69	30	52	37	82	51	33	78	 5	82
	 












 
 


 

 
